NAME : portcgen-15-16
COMMENT : portcgen N=15, seed=16
TYPE : TSP
DIMENSION : 15
EDGE_WEIGHT_TYPE : EUC_2D
NODE_COORD_SECTION
1 -74328 -98348
2 -168983 -243694
3 345397 -86358
4 -296464 244577
5 183669 9357
6 -513268 225322
7 113673 270187
8 129493 327776
9 -130371 -154514
10 -95149 530782
11 70660 -136946
12 75674 -210702
13 -528019 183806
14 655324 -69247
15 218731 -224895
